words_easy_train/words_752_SAT.qaiger
aag 50 16 0 1 34
26
22
24
4
12
28
32
18
6
8
14
2
30
16
10
20
101
34 5 3
36 34 7
38 36 9
40 33 11
42 32 10
44 43 41
46 45 39
48 44 38
50 49 47
52 25 2
54 24 3
56 55 53
58 23 21
60 58 18
62 60 56
64 4 2
66 65 35
68 66 27
70 67 26
72 71 69
74 72 62
76 74 50
78 35 6
80 79 37
82 81 28
84 80 29
86 85 83
88 86 76
90 37 8
92 91 39
94 92 30
96 93 31
98 97 95
100 99 88
i0 1 x2[4]
i1 1 x2[2]
i2 1 x2[3]
i3 2 y1[1]
i4 2 y1[5]
i5 1 x2[5]
i6 1 x2[7]
i7 1 x2[0]
i8 2 y1[2]
i9 2 y1[3]
i10 2 y1[6]
i11 2 y1[0]
i12 1 x2[6]
i13 2 y1[7]
i14 2 y1[4]
i15 1 x2[1]
o0 bool[0]
c
simplified
  !=
    subtract
      1
      << 3
        2 y1
    1 x2
