words_easy_train/words_752_SAT.qaiger.qdimacs
p cnf 50 103
a 9 10 11 12 13 14 15 16 0
e 1 2 3 4 5 6 7 8 17 18 19 20 21 22 23 24 25 26 27 28 29 30 31 32 33 34 35 36 37 38 39 40 41 42 43 44 45 46 47 48 49 50 0
2 1 17 0
-2 -17 0
-1 -17 0
-17 3 18 0
17 -18 0
-3 -18 0
-18 4 19 0
18 -19 0
-4 -19 0
16 5 20 0
-16 -20 0
-5 -20 0
-16 -5 21 0
16 -21 0
5 -21 0
21 20 22 0
-21 -22 0
-20 -22 0
22 19 23 0
-22 -23 0
-19 -23 0
-22 -19 24 0
22 -24 0
19 -24 0
24 23 25 0
-24 -25 0
-23 -25 0
12 -1 26 0
-12 -26 0
1 -26 0
-12 1 27 0
12 -27 0
-1 -27 0
27 26 28 0
-27 -28 0
-26 -28 0
11 10 29 0
-11 -29 0
-10 -29 0
-29 -9 30 0
29 -30 0
9 -30 0
-30 -28 31 0
30 -31 0
28 -31 0
-2 -1 32 0
2 -32 0
1 -32 0
32 17 33 0
-32 -33 0
-17 -33 0
-33 13 34 0
33 -34 0
-13 -34 0
33 -13 35 0
-33 -35 0
13 -35 0
35 34 36 0
-35 -36 0
-34 -36 0
-36 -31 37 0
36 -37 0
31 -37 0
-37 -25 38 0
37 -38 0
25 -38 0
17 -3 39 0
-17 -39 0
3 -39 0
39 18 40 0
-39 -40 0
-18 -40 0
40 -14 41 0
-40 -41 0
14 -41 0
-40 14 42 0
40 -42 0
-14 -42 0
42 41 43 0
-42 -43 0
-41 -43 0
-43 -38 44 0
43 -44 0
38 -44 0
18 -4 45 0
-18 -45 0
4 -45 0
45 19 46 0
-45 -46 0
-19 -46 0
-46 -15 47 0
46 -47 0
15 -47 0
46 15 48 0
-46 -48 0
-15 -48 0
48 47 49 0
-48 -49 0
-47 -49 0
49 -44 50 0
-49 -50 0
44 -50 0
-50 0
